
Log started (V11.0.0) Sat May 17 10:59:07 2008

Tried aggregator 1 time.
Reduced MIP has 520 rows, 10001 columns, and 20020 nonzeros.
Presolve time =    0.06 sec.
Clique table members: 500.
MIP emphasis: balance optimality and feasibility.
MIP search method: dynamic search.
Parallel mode: none, using 1 thread.
Root relaxation solution time =    0.47 sec.

        Nodes                                         Cuts/
   Node  Left     Objective  IInf  Best Integer     Best Node    ItCnt     Gap

*     0+    0                        55083.0000     2515.2000      702   95.43%
*     0+    0                         2521.0000     2515.2000      702    0.23%
      0     0     2516.0000    23     2521.0000      Fract: 6      715    0.20%
      0     0     2516.0000    40     2521.0000     Covers: 2      747    0.20%
      0     0     2516.0000    39     2521.0000     Covers: 3      769    0.20%
      0     2     2516.0000    39     2521.0000     2516.0000      769    0.20%
    100    99     2517.0010    37     2521.0000     2516.0000     2833    0.20%
*   200+  189                         2519.0000     2516.0000     5555    0.12%
*   200+  179                         2518.0000     2516.0000     5555    0.08%
    200   181     2517.0000    36     2518.0000     2516.0000     5555    0.08%
    300   266     2516.0000    35     2518.0000     2516.0000     8335    0.08%
    400   366     2516.0000    36     2518.0000     2516.0000    11825    0.08%
    500   430     2516.0000    38     2518.0000     2516.0000    17074    0.08%
    600   446     2517.0000    31     2518.0000     2516.0000    19217    0.08%
*   698+  215                         2517.0000     2516.0000    22522    0.04%
    700   213     2516.0000    38     2517.0000     2516.0000    22710    0.04%
    800   238     2516.0000    33     2517.0000     2516.0000    23997    0.04%
    900   255     2516.0000    40     2517.0000     2516.0000    25635    0.04%
   1000   306     2516.0000    35     2517.0000     2516.0000    28067    0.04%
Elapsed time =  47.47 sec. (tree size =  2.75 MB, solutions = 5)
   1100   400    infeasible           2517.0000     2516.0000    30884    0.04%
   1200   472    infeasible           2517.0000     2516.0000    38938    0.04%
   1300   550     2516.0000    36     2517.0000     2516.0000    47694    0.04%
   1400   628     2516.0000    31     2517.0000     2516.0000    51266    0.04%
   1500   715     2516.0000    38     2517.0000     2516.0000    54043    0.04%
   1600   789    infeasible           2517.0000     2516.0000    62981    0.04%
   1700   853     2516.0000    31     2517.0000     2516.0000    75098    0.04%
   1800   918     2516.0000    35     2517.0000     2516.0000    79880    0.04%
   1900  1000     2516.0000    32     2517.0000     2516.0000    84023    0.04%
   2000  1081     2516.0000    39     2517.0000     2516.0000    86828    0.04%
Elapsed time =  86.05 sec. (tree size = 10.22 MB, solutions = 5)
*  2098+    1                         2516.0000     2516.0000    93926    0.00%

Cover cuts applied:  89
Mixed integer rounding cuts applied:  1
Gomory fractional cuts applied:  3

Solution pool: 6 solutions saved.

MIP - Integer optimal solution:  Objective = 2.5160000000e+003
Solution time =   91.23 sec.  Iterations = 93926  Nodes = 2098


Incumbent solution
Variable Name           Solution Value
Cmax                       2516.000000
X_1_15                        1.000000
X_2_4                         1.000000
X_3_17                        1.000000
X_4_7                         1.000000
X_5_20                        1.000000
X_6_14                        1.000000
X_7_11                        1.000000
X_8_18                        1.000000
X_9_2                         1.000000
X_10_1                        1.000000
X_11_19                       1.000000
X_12_18                       1.000000
X_13_2                        1.000000
X_14_12                       1.000000
X_15_14                       1.000000
X_16_5                        1.000000
X_17_14                       1.000000
X_18_1                        1.000000
X_19_5                        1.000000
X_20_17                       1.000000
X_21_8                        1.000000
X_22_12                       1.000000
X_23_11                       1.000000
X_24_7                        1.000000
X_25_16                       1.000000
X_26_18                       1.000000
X_27_6                        1.000000
X_28_10                       1.000000
X_29_10                       1.000000
X_30_4                        1.000000
X_31_14                       1.000000
X_32_8                        1.000000
X_33_19                       1.000000
X_34_1                        1.000000
X_35_7                        1.000000
X_36_5                        1.000000
X_37_6                        1.000000
X_38_2                        1.000000
X_39_8                        1.000000
X_40_5                        1.000000
X_41_1                        1.000000
X_42_14                       1.000000
X_43_5                        1.000000
X_44_6                        1.000000
X_45_18                       1.000000
X_46_15                       1.000000
X_47_3                        1.000000
X_48_1                        1.000000
X_49_3                        1.000000
X_50_9                        1.000000
X_51_11                       1.000000
X_52_10                       1.000000
X_53_17                       1.000000
X_54_15                       1.000000
X_55_2                        1.000000
X_56_4                        1.000000
X_57_2                        1.000000
X_58_5                        1.000000
X_59_19                       1.000000
X_60_3                        1.000000
X_61_8                        1.000000
X_62_2                        1.000000
X_63_11                       1.000000
X_64_3                        1.000000
X_65_6                        1.000000
X_66_19                       1.000000
X_67_16                       1.000000
X_68_10                       1.000000
X_69_3                        1.000000
X_70_6                        1.000000
X_71_10                       1.000000
X_72_14                       1.000000
X_73_2                        1.000000
X_74_9                        1.000000
X_75_15                       1.000000
X_76_4                        1.000000
X_77_6                        1.000000
X_78_12                       1.000000
X_79_6                        1.000000
X_80_9                        1.000000
X_81_20                       1.000000
X_82_13                       1.000000
X_83_8                        1.000000
X_84_12                       1.000000
X_85_18                       1.000000
X_86_5                        1.000000
X_87_6                        1.000000
X_88_4                        1.000000
X_89_20                       1.000000
X_90_13                       1.000000
X_91_16                       1.000000
X_92_3                        1.000000
X_93_17                       1.000000
X_94_2                        1.000000
X_95_6                        1.000000
X_96_4                        1.000000
X_97_12                       1.000000
X_98_10                       1.000000
X_99_20                       1.000000
X_100_7                       1.000000
X_101_4                       1.000000
X_102_10                      1.000000
X_103_14                      1.000000
X_104_13                      1.000000
X_105_13                      1.000000
X_106_16                      1.000000
X_107_5                       1.000000
X_108_14                      1.000000
X_109_3                       1.000000
X_110_7                       1.000000
X_111_4                       1.000000
X_112_19                      1.000000
X_113_19                      1.000000
X_114_8                       1.000000
X_115_20                      1.000000
X_116_20                      1.000000
X_117_19                      1.000000
X_118_15                      1.000000
X_119_14                      1.000000
X_120_3                       1.000000
X_121_7                       1.000000
X_122_19                      1.000000
X_123_20                      1.000000
X_124_12                      1.000000
X_125_10                      1.000000
X_126_3                       1.000000
X_127_5                       1.000000
X_128_18                      1.000000
X_129_15                      1.000000
X_130_9                       1.000000
X_131_18                      1.000000
X_132_10                      1.000000
X_133_6                       1.000000
X_134_15                      1.000000
X_135_4                       1.000000
X_136_12                      1.000000
X_137_9                       1.000000
X_138_2                       1.000000
X_139_5                       1.000000
X_140_16                      1.000000
X_141_8                       1.000000
X_142_8                       1.000000
X_143_11                      1.000000
X_144_16                      1.000000
X_145_19                      1.000000
X_146_13                      1.000000
X_147_13                      1.000000
X_148_3                       1.000000
X_149_7                       1.000000
X_150_18                      1.000000
X_151_15                      1.000000
X_152_1                       1.000000
X_153_14                      1.000000
X_154_8                       1.000000
X_155_4                       1.000000
X_156_5                       1.000000
X_157_12                      1.000000
X_158_18                      1.000000
X_159_20                      1.000000
X_160_13                      1.000000
X_161_14                      1.000000
X_162_17                      1.000000
X_163_16                      1.000000
X_164_8                       1.000000
X_165_11                      1.000000
X_166_9                       1.000000
X_167_19                      1.000000
X_168_8                       1.000000
X_169_1                       1.000000
X_170_7                       1.000000
X_171_20                      1.000000
X_172_16                      1.000000
X_173_16                      1.000000
X_174_13                      1.000000
X_175_11                      1.000000
X_176_12                      1.000000
X_177_6                       1.000000
X_178_13                      1.000000
X_179_1                       1.000000
X_180_18                      1.000000
X_181_12                      1.000000
X_182_3                       1.000000
X_183_16                      1.000000
X_184_11                      1.000000
X_185_20                      1.000000
X_186_4                       1.000000
X_187_13                      1.000000
X_188_3                       1.000000
X_189_12                      1.000000
X_190_20                      1.000000
X_191_6                       1.000000
X_192_17                      1.000000
X_193_17                      1.000000
X_194_1                       1.000000
X_195_2                       1.000000
X_196_9                       1.000000
X_197_17                      1.000000
X_198_4                       1.000000
X_199_10                      1.000000
X_200_12                      1.000000
X_201_19                      1.000000
X_202_13                      1.000000
X_203_11                      1.000000
X_204_4                       1.000000
X_205_2                       1.000000
X_206_18                      1.000000
X_207_11                      1.000000
X_208_8                       1.000000
X_209_6                       1.000000
X_210_15                      1.000000
X_211_15                      1.000000
X_212_18                      1.000000
X_213_1                       1.000000
X_214_4                       1.000000
X_215_1                       1.000000
X_216_2                       1.000000
X_217_12                      1.000000
X_218_19                      1.000000
X_219_17                      1.000000
X_220_18                      1.000000
X_221_18                      1.000000
X_222_17                      1.000000
X_223_16                      1.000000
X_224_18                      1.000000
X_225_18                      1.000000
X_226_10                      1.000000
X_227_16                      1.000000
X_228_11                      1.000000
X_229_13                      1.000000
X_230_17                      1.000000
X_231_13                      1.000000
X_232_15                      1.000000
X_233_4                       1.000000
X_234_9                       1.000000
X_235_8                       1.000000
X_236_9                       1.000000
X_237_3                       1.000000
X_238_19                      1.000000
X_239_1                       1.000000
X_240_2                       1.000000
X_241_8                       1.000000
X_242_13                      1.000000
X_243_3                       1.000000
X_244_2                       1.000000
X_245_3                       1.000000
X_246_20                      1.000000
X_247_6                       1.000000
X_248_9                       1.000000
X_249_14                      1.000000
X_250_20                      1.000000
X_251_16                      1.000000
X_252_11                      1.000000
X_253_4                       1.000000
X_254_15                      1.000000
X_255_9                       1.000000
X_256_15                      1.000000
X_257_10                      1.000000
X_258_8                       1.000000
X_259_7                       1.000000
X_260_20                      1.000000
X_261_10                      1.000000
X_262_7                       1.000000
X_263_17                      1.000000
X_264_14                      1.000000
X_265_9                       1.000000
X_266_17                      1.000000
X_267_19                      1.000000
X_268_14                      1.000000
X_269_3                       1.000000
X_270_9                       1.000000
X_271_12                      1.000000
X_272_14                      1.000000
X_273_4                       1.000000
X_274_17                      1.000000
X_275_3                       1.000000
X_276_17                      1.000000
X_277_16                      1.000000
X_278_2                       1.000000
X_279_19                      1.000000
X_280_5                       1.000000
X_281_3                       1.000000
X_282_12                      1.000000
X_283_18                      1.000000
X_284_16                      1.000000
X_285_7                       1.000000
X_286_9                       1.000000
X_287_6                       1.000000
X_288_11                      1.000000
X_289_11                      1.000000
X_290_16                      1.000000
X_291_19                      1.000000
X_292_10                      1.000000
X_293_6                       1.000000
X_294_1                       1.000000
X_295_8                       1.000000
X_296_19                      1.000000
X_297_15                      1.000000
X_298_1                       1.000000
X_299_18                      1.000000
X_300_11                      1.000000
X_301_17                      1.000000
X_302_6                       1.000000
X_303_7                       1.000000
X_304_8                       1.000000
X_305_1                       1.000000
X_306_16                      1.000000
X_307_14                      1.000000
X_308_9                       1.000000
X_309_2                       1.000000
X_310_1                       1.000000
X_311_7                       1.000000
X_312_10                      1.000000
X_313_9                       1.000000
X_314_14                      1.000000
X_315_7                       1.000000
X_316_14                      1.000000
X_317_12                      1.000000
X_318_10                      1.000000
X_319_2                       1.000000
X_320_11                      1.000000
X_321_7                       1.000000
X_322_20                      1.000000
X_323_14                      1.000000
X_324_11                      1.000000
X_325_9                       1.000000
X_326_20                      1.000000
X_327_1                       1.000000
X_328_2                       1.000000
X_329_17                      1.000000
X_330_8                       1.000000
X_331_12                      1.000000
X_332_16                      1.000000
X_333_5                       1.000000
X_334_17                      1.000000
X_335_15                      1.000000
X_336_2                       1.000000
X_337_17                      1.000000
X_338_12                      1.000000
X_339_4                       1.000000
X_340_11                      1.000000
X_341_12                      1.000000
X_342_18                      1.000000
X_343_6                       1.000000
X_344_14                      1.000000
X_345_5                       1.000000
X_346_17                      1.000000
X_347_16                      1.000000
X_348_18                      1.000000
X_349_14                      1.000000
X_350_2                       1.000000
X_351_14                      1.000000
X_352_11                      1.000000
X_353_1                       1.000000
X_354_15                      1.000000
X_355_5                       1.000000
X_356_15                      1.000000
X_357_13                      1.000000
X_358_9                       1.000000
X_359_11                      1.000000
X_360_16                      1.000000
X_361_20                      1.000000
X_362_18                      1.000000
X_363_15                      1.000000
X_364_7                       1.000000
X_365_19                      1.000000
X_366_3                       1.000000
X_367_2                       1.000000
X_368_10                      1.000000
X_369_13                      1.000000
X_370_15                      1.000000
X_371_3                       1.000000
X_372_12                      1.000000
X_373_19                      1.000000
X_374_14                      1.000000
X_375_7                       1.000000
X_376_5                       1.000000
X_377_7                       1.000000
X_378_7                       1.000000
X_379_13                      1.000000
X_380_8                       1.000000
X_381_15                      1.000000
X_382_16                      1.000000
X_383_13                      1.000000
X_384_17                      1.000000
X_385_12                      1.000000
X_386_1                       1.000000
X_387_16                      1.000000
X_388_2                       1.000000
X_389_1                       1.000000
X_390_2                       1.000000
X_391_6                       1.000000
X_392_3                       1.000000
X_393_10                      1.000000
X_394_13                      1.000000
X_395_1                       1.000000
X_396_19                      1.000000
X_397_13                      1.000000
X_398_13                      1.000000
X_399_9                       1.000000
X_400_8                       1.000000
X_401_5                       1.000000
X_402_10                      1.000000
X_403_3                       1.000000
X_404_6                       1.000000
X_405_13                      1.000000
X_406_16                      1.000000
X_407_13                      1.000000
X_408_12                      1.000000
X_409_14                      1.000000
X_410_19                      1.000000
X_411_15                      1.000000
X_412_20                      1.000000
X_413_4                       1.000000
X_414_13                      1.000000
X_415_9                       1.000000
X_416_1                       1.000000
X_417_10                      1.000000
X_418_3                       1.000000
X_419_18                      1.000000
X_420_7                       1.000000
X_421_18                      1.000000
X_422_11                      1.000000
X_423_8                       1.000000
X_424_10                      1.000000
X_425_7                       1.000000
X_426_14                      1.000000
X_427_9                       1.000000
X_428_6                       1.000000
X_429_5                       1.000000
X_430_1                       1.000000
X_431_17                      1.000000
X_432_6                       1.000000
X_433_9                       1.000000
X_434_1                       1.000000
X_435_15                      1.000000
X_436_17                      1.000000
X_437_20                      1.000000
X_438_11                      1.000000
X_439_15                      1.000000
X_440_4                       1.000000
X_441_20                      1.000000
X_442_12                      1.000000
X_443_3                       1.000000
X_444_4                       1.000000
X_445_9                       1.000000
X_446_10                      1.000000
X_447_11                      1.000000
X_448_8                       1.000000
X_449_10                      1.000000
X_450_4                       1.000000
X_451_5                       1.000000
X_452_15                      1.000000
X_453_5                       1.000000
X_454_18                      1.000000
X_455_6                       1.000000
X_456_3                       1.000000
X_457_1                       1.000000
X_458_6                       1.000000
X_459_12                      1.000000
X_460_10                      1.000000
X_461_4                       1.000000
X_462_20                      1.000000
X_463_20                      1.000000
X_464_20                      1.000000
X_465_5                       1.000000
X_466_11                      1.000000
X_467_16                      1.000000
X_468_7                       1.000000
X_469_19                      1.000000
X_470_5                       1.000000
X_471_19                      1.000000
X_472_7                       1.000000
X_473_6                       1.000000
X_474_18                      1.000000
X_475_4                       1.000000
X_476_5                       1.000000
X_477_9                       1.000000
X_478_7                       1.000000
X_479_19                      1.000000
X_480_7                       1.000000
X_481_16                      1.000000
X_482_2                       1.000000
X_483_13                      1.000000
X_484_17                      1.000000
X_485_12                      1.000000
X_486_5                       1.000000
X_487_4                       1.000000
X_488_20                      1.000000
X_489_19                      1.000000
X_490_8                       1.000000
X_491_17                      1.000000
X_492_11                      1.000000
X_493_8                       1.000000
X_494_15                      1.000000
X_495_2                       1.000000
X_496_5                       1.000000
X_497_10                      1.000000
X_498_20                      1.000000
X_499_9                       1.000000
X_500_8                       1.000000
All other variables in the range 1-10001 are 0.
